500
100 100
1 70 592
2 70 401
3 70 81
4 70 790
5 70 595
6 70 984
7 70 83
8 70 585
9 70 646
10 69 152
11 69 485
12 69 590
13 69 804
14 69 655
15 69 499
16 69 338
17 69 460
18 68 270
19 68 136
20 68 240
21 68 14
22 68 430
23 67 102
24 67 694
25 67 722
26 67 53
27 66 283
28 66 834
29 66 298
30 66 202
31 66 28
32 66 802
33 66 776
34 66 378
35 66 738
36 66 638
37 66 513
38 65 651
39 65 461
40 65 647
41 65 745
42 65 638
43 65 966
44 64 821
45 64 563
46 64 211
47 64 664
48 64 486
49 64 78
50 64 668
51 64 925
52 64 349
53 64 618
54 64 314
55 64 630
56 64 416
57 64 419
58 63 450
59 63 169
60 63 552
61 63 675
62 63 170
63 63 295
64 63 420
65 63 474
66 63 716
67 63 568
68 62 402
69 62 595
70 62 412
71 62 424
72 62 894
73 62 205
74 62 14
75 62 128
76 62 362
77 62 837
78 62 383
79 62 311
80 62 209
81 61 684
82 61 452
83 61 220
84 61 44
85 61 349
86 61 957
87 61 329
88 61 743
89 61 740
90 61 752
91 60 85
92 60 873
93 60 936
94 60 141
95 60 216
96 60 142
97 60 898
98 60 692
99 60 434
100 59 32
101 59 383
102 59 990
103 59 67
104 59 743
105 59 487
106 59 956
107 59 810
108 59 892
109 59 19
110 59 196
111 59 913
112 59 226
113 59 671
114 59 419
115 59 475
116 59 638
117 59 567
118 59 864
119 59 385
120 59 599
121 59 292
122 58 977
123 58 152
124 58 296
125 58 600
126 58 924
127 58 649
128 58 316
129 58 423
130 58 482
131 57 585
132 57 269
133 57 350
134 57 989
135 57 965
136 57 381
137 57 498
138 57 560
139 57 349
140 56 787
141 56 246
142 56 1
143 56 466
144 56 117
145 56 101
146 56 509
147 56 134
148 56 345
149 56 160
150 56 599
151 56 732
152 56 759
153 56 95
154 56 788
155 56 30
156 56 57
157 56 930
158 56 912
159 55 1
160 55 900
161 55 968
162 55 962
163 55 65
164 55 732
165 54 417
166 54 868
167 54 442
168 54 749
169 53 347
170 53 412
171 53 229
172 53 38
173 53 562
174 53 97
175 53 783
176 53 353
177 53 9
178 52 152
179 52 457
180 52 169
181 52 351
182 52 965
183 52 405
184 51 48
185 51 279
186 51 545
187 51 832
188 51 525
189 51 466
190 51 762
191 51 141
192 51 634
193 50 914
194 50 715
195 50 86
196 50 381
197 50 685
198 50 526
199 50 693
200 50 369
201 50 657
202 50 410
203 50 918
204 50 933
205 50 158
206 50 809
207 50 245
208 50 251
209 50 187
210 50 396
211 49 957
212 49 404
213 49 223
214 48 842
215 48 576
216 48 131
217 48 304
218 48 705
219 48 94
220 48 849
221 48 773
222 48 343
223 48 789
224 48 70
225 48 158
226 48 862
227 48 156
228 48 467
229 48 335
230 47 605
231 47 688
232 47 136
233 47 32
234 47 447
235 47 257
236 47 245
237 47 531
238 47 11
239 47 769
240 47 71
241 46 216
242 46 216
243 46 83
244 46 349
245 46 727
246 46 686
247 46 993
248 46 613
249 46 109
250 46 181
251 46 913
252 46 365
253 45 689
254 45 170
255 45 811
256 45 746
257 45 315
258 45 212
259 45 989
260 45 692
261 45 171
262 45 490
263 45 725
264 45 4
265 45 944
266 44 318
267 44 266
268 44 193
269 44 500
270 44 766
271 44 41
272 44 793
273 44 18
274 44 363
275 44 316
276 43 982
277 43 939
278 43 879
279 43 600
280 43 226
281 43 300
282 43 168
283 43 477
284 42 512
285 42 994
286 42 545
287 42 314
288 41 250
289 41 879
290 41 11
291 41 544
292 41 190
293 41 633
294 41 679
295 41 133
296 41 185
297 40 703
298 40 123
299 40 427
300 40 503
301 40 707
302 40 563
303 40 333
304 40 529
305 40 500
306 40 729
307 40 785
308 39 70
309 39 148
310 39 54
311 39 599
312 39 532
313 39 950
314 39 879
315 39 314
316 39 862
317 39 243
318 39 60
319 39 608
320 39 505
321 39 952
322 39 465
323 39 326
324 38 173
325 38 943
326 38 652
327 38 837
328 38 131
329 38 689
330 38 36
331 38 464
332 38 697
333 38 432
334 37 306
335 37 620
336 37 602
337 37 719
338 37 990
339 37 936
340 37 34
341 37 822
342 36 544
343 36 444
344 36 66
345 36 723
346 36 508
347 36 437
348 36 734
349 36 381
350 36 778
351 36 806
352 35 277
353 35 650
354 35 108
355 35 671
356 35 870
357 35 691
358 35 832
359 35 182
360 35 894
361 35 215
362 35 870
363 34 80
364 34 230
365 34 578
366 34 940
367 34 1
368 34 266
369 34 38
370 34 673
371 34 782
372 34 880
373 33 969
374 33 728
375 33 261
376 33 246
377 33 944
378 33 623
379 33 612
380 33 242
381 32 828
382 32 699
383 32 585
384 32 900
385 32 768
386 32 716
387 31 839
388 31 236
389 31 658
390 31 1
391 31 733
392 30 5
393 30 295
394 30 418
395 30 169
396 30 122
397 30 512
398 30 33
399 30 128
400 30 569
401 30 893
402 30 54
403 30 406
404 30 302
405 30 577
406 30 394
407 30 792
408 30 284
409 30 184
410 29 711
411 29 411
412 29 480
413 29 219
414 29 556
415 28 141
416 28 338
417 28 796
418 28 270
419 28 864
420 28 971
421 28 316
422 28 289
423 28 722
424 28 181
425 28 26
426 27 225
427 27 91
428 27 530
429 27 67
430 27 487
431 27 380
432 27 499
433 27 434
434 27 534
435 26 546
436 26 732
437 26 15
438 26 622
439 26 481
440 26 409
441 26 905
442 26 286
443 26 87
444 26 743
445 25 665
446 25 522
447 25 609
448 25 232
449 25 940
450 25 343
451 24 689
452 24 47
453 24 250
454 24 739
455 24 81
456 24 797
457 24 882
458 24 789
459 24 31
460 24 931
461 24 719
462 24 802
463 24 106
464 24 751
465 23 952
466 23 660
467 23 666
468 23 249
469 23 772
470 23 170
471 23 943
472 23 25
473 22 591
474 22 535
475 22 200
476 22 373
477 22 6
478 22 127
479 22 715
480 22 3
481 22 937
482 21 414
483 21 692
484 21 273
485 21 816
486 21 209
487 21 417
488 21 675
489 21 752
490 21 44
491 21 763
492 20 500
493 20 427
494 20 78
495 20 734
496 20 196
497 20 510
498 20 852
499 20 796
500 20 565
